&CONTROL
   calculation      = 'scf'
   restart_mode     = 'from_scratch'
   wf_collect       = .true.
   nstep            = 300
   tprnfor          = .true.
   outdir           = './scr/'
   pseudo_dir       = '/path/to/pseudopot/'
/
&SYSTEM
   ibrav            = 0
   ecutwfc          = 60
   ecutrho          = 300
   occupations      = 'smearing'
   degauss          = 0.005
   nspin            = 2
   edir             = 3
   starting_magnetization = 0.0
   ntyp             = 2
   nat              = 
/
&ELECTRONS
   electron_maxstep = 300
   conv_thr         = 1e-06
   mixing_mode      = 'plain'
   mixing_beta      = 0.1
   diagonalization  = 'david'
/
&IONS
/
&CELL
/

ATOMIC_SPECIES
H  1.008  H.revpbe-rrkjus_psl.1.0.0.UPF   
O  15.999 O.revpbe-n-rrkjus_psl.1.0.0.UPF 

K_POINTS automatic
1 1 1  0 0 0

CELL_PARAMETERS angstrom
20.0000000  0.00000000 0.000000000
 0.0000000  20.00000000 0.000000000
 0.0000000  0.00000000 20.000000000

ATOMIC_POSITIONS angstrom
