&CONTROL
  calculation      = 'scf'
  restart_mode     = 'from_scratch'
  wf_collect       = .true.
  tprnfor          = .true.
  outdir           = './scr/'
  pseudo_dir       = '/path/to/pseudods/'
/
&SYSTEM
  ibrav            = 0
  ecutwfc          = 60
  ecutrho          = 300
  occupations      = 'smearing'
  degauss          = 0.005
  nspin            = 1
  tot_charge       = 0
  ntyp             = 4   ! H, O, Mg, Cl
  nat              = 378   
  starting_charge(3) = 2.0,
  starting_charge(4) = -1.0,

/
&ELECTRONS
  electron_maxstep = 300
  conv_thr         = 1.0d-6
  mixing_mode      = 'plain'
  mixing_beta      = 0.1
  diagonalization  = 'david'
/
&IONS
/
&CELL
/

ATOMIC_SPECIES
H   1.008    H.revpbe-rrkjus_psl.1.0.0.UPF
O   15.999   O.revpbe-n-rrkjus_psl.1.0.0.UPF
Mg  24.305   Mg.revpbe-spnl-rrkjus_psl.1.0.0.UPF
Cl  34.45    Cl.revpbe-nl-rrkjus_psl.1.0.0.UPF

K_POINTS automatic
1 1 1  0 0 0

CELL_PARAMETERS angstrom
 15.6613   0.0000   0.0000
0.0000    15.6613   0.0000
0.0000   0.0000    15.6613

ATOMIC_POSITIONS angstrom

